Solving original (integer) problem with strategy gdp.binary_multiplication...
--- Job model.gms Start 02/19/26 01:15:33 52.2.0 d8e408be LEX-LEG x86 64bit/Linux
--- Applying:
    /package/gams/52.2/gmsprmun.txt
--- GAMS Parameters defined
    Input /local/scratch/a/sgusev/repos/k_means/data/gams_gurobi_gdp.binary_multiplication/no_mode/2026-02-19_01-15-32/original/model.gms
    Output /local/scratch/a/sgusev/repos/k_means/data/gams_gurobi_gdp.binary_multiplication/no_mode/2026-02-19_01-15-32/original/output.lst
    ScrDir /local/scratch/a/sgusev/repos/k_means/data/gams_gurobi_gdp.binary_multiplication/no_mode/2026-02-19_01-15-32/original/225a/
    SysDir /package/gams/52.2/
    CurDir /local/scratch/a/sgusev/repos/k_means/data/gams_gurobi_gdp.binary_multiplication/no_mode/2026-02-19_01-15-32/original/
    LogOption 3
    AppendLog 1
Licensee: David Bernal / SECQUOIA Research Group         G251008+0003Ac-GEN
          Purdue University, Davidson School of Chemical EngineeringDCE4838
          225a/gamslice.dat
          5a82958a-fbca-4a23
          node:66820903 mem:995 cores:48 ipport:36535 v:2                  
          Evaluation license: Not for commercial or production use
          The time-limited license stops working on : Jun 30, 2027
System information: 48 physical cores and 995 Gb physical memory detected
GAMS 52.2.0   Copyright (C) 1987-2025 GAMS Development. All rights reserved
--- Starting compilation
--- model.gms(273) 2 Mb
--- $echo File /local/scratch/a/sgusev/repos/k_means/data/gams_gurobi_gdp.binary_multiplication/no_mode/2026-02-19_01-15-32/original/gurobi.opt
--- model.gms(474) 2 Mb
--- Starting execution: elapsed 0:00:00.006
--- model.gms(282) 3 Mb
--- Generating MINLP model GAMS_MODEL
--- model.gms(286) 5 Mb
---   59 rows  76 columns  370 non-zeroes
---   1,012 nl-code  308 nl-non-zeroes
---   44 discrete-columns
--- Range statistics (absolute non-zero finite values)
--- RHS       [min, max] : [ 1.000E+00, 1.000E+00] - Zero values observed as well
--- Bound     [min, max] : [ 1.000E+00, 1.100E+02] - Zero values observed as well
--- Matrix    [min, max] : [ 7.891E-01, 2.368E+00] - Zero values observed as well
--- model.gms(286) 3 Mb
--- Executing GUROBI (Solvelink=5): elapsed 0:00:00.009
Reading parameter(s) from "/local/scratch/a/sgusev/repos/k_means/data/gams_gurobi_gdp.binary_multiplication/no_mode/2026-02-19_01-15-32/original/gurobi.opt"
>>  NonConvex 2
>>  Threads 1
>>  MIPGap 1e-06
>>  MIPGapAbs 1e-10
>>  FeasibilityTol 1e-06
>>  OptimalityTol 1e-06
>>  IntFeasTol 1e-05
Finished reading from "/local/scratch/a/sgusev/repos/k_means/data/gams_gurobi_gdp.binary_multiplication/no_mode/2026-02-19_01-15-32/original/gurobi.opt"

... GRB_LICENSE_FILE = /local/scratch/a/sgusev/gurobi.lic

    Gurobi           52.2.0 d8e408be Dec 8, 2025           LEG x86 64bit/Linux    

... GAMS/Gurobi Link license.
... GMO Q Extraction (ThreePass): 0.00s

    Gurobi Optimizer version 13.0.0 build v13.0.0rc1 (linux64 - "Oracle Linux Server 9.7")
    
    CPU model: AMD EPYC 7643 48-Core Processor, instruction set [SSE2|AVX|AVX2]
    Thread count: 48 physical cores, 96 logical processors, using up to 1 threads
    
    Non-default parameters:
    TimeLimit  300
    MIPGap  1e-06
    LogToConsole  0
    NonConvex  2
    Threads  1
    
    Optimize a model with 58 rows, 119 columns and 94 nonzeros (Min)
    Model fingerprint: 0x5f3289f7
    Model has 11 linear objective coefficients
    Model has 44 general nonlinear constraints (264 nonlinear terms)
    Variable types: 75 continuous, 44 integer (0 binary)
    Coefficient statistics:
      Matrix range     [1e+00, 1e+00]
      Objective range  [1e+00, 1e+00]
      Bounds range     [1e+00, 1e+02]
      RHS range        [1e+00, 1e+00]
      NLCon coe range  [1e-02, 1e+00]
    Presolve model has 44 nlconstr
    Added 484 variables to disaggregate expressions
    Presolve removed 44 rows and 0 columns
    Presolve time: 0.00s
    Presolved: 1114 rows, 648 columns, 2558 nonzeros
    Presolved model has 220 bilinear constraint(s)
    
    Solving non-convex MIQCP to global optimality
    
    Variable types: 604 continuous, 44 integer (44 binary)
    Found heuristic solution: objective 14.1161825
    
    Root relaxation: objective 0.000000e+00, 42 iterations, 0.00 seconds (0.00 work units)
    
        Nodes    |    Current Node    |     Objective Bounds      |     Work
     Expl Unexpl |  Obj  Depth IntInf | Incumbent    BestBd   Gap | It/Node Time
    
         0     0    0.00000    0  220   14.11618    0.00000   100%     -    0s
    H    0     0                      13.4891328    0.00000   100%     -    0s
         0     0    0.00000    0  242   13.48913    0.00000   100%     -    0s
         0     0    0.00000    0  242   13.48913    0.00000   100%     -    0s
         0     0    0.00000    0  233   13.48913    0.00000   100%     -    0s
         0     0    0.00000    0  227   13.48913    0.00000   100%     -    0s
         0     0    0.00000    0  238   13.48913    0.00000   100%     -    0s
         0     0    0.00000    0  226   13.48913    0.00000   100%     -    0s
         0     0    0.00000    0  226   13.48913    0.00000   100%     -    0s
         0     0    0.00000    0  223   13.48913    0.00000   100%     -    0s
    H    0     0                      13.2071221    0.00000   100%     -    0s
    H    0     0                      12.9307925    0.00000   100%     -    0s
    H    0     0                      11.8721667    0.00000   100%     -    0s
         0     2    0.00000    0  223   11.87217    0.00000   100%     -    0s
    H    1     1                      10.7285903    0.00000   100%   0.0    0s
    H    2     2                       8.8876264    0.00000   100%  16.5    0s
    H    2     2                       8.6984227    0.00000   100%  16.5    0s
    H    4     4                       8.6984227    0.00000   100%  16.8    0s
    H    5     5                       8.3470996    0.00000   100%  19.8    0s
    H   34    33                       8.3119561    0.00000   100%  18.6    0s
    H  135   122                       8.3119561    0.00000   100%  14.2    0s
    H  149   127                       7.5734329    0.00000   100%  14.4    0s
    H  151   128                       7.2017163    0.00000   100%  14.3    0s
    H  174   149                       7.2017163    0.00000   100%  13.3    0s
    H  544   283                       5.4671592    0.00000   100%  10.3    0s
    H  545   285                       5.4671592    0.00000   100%  10.3    0s
    H  545   285                       5.4671592    0.00000   100%  10.3    0s
    H  554   276                       5.2829613    0.00000   100%  10.1    1s
    H  567   270                       5.2421951    0.00000   100%  16.7    1s
    H  567   257                       5.2416179    0.00000   100%  16.7    1s
    H  568   245                       5.2196523    0.00000   100%  16.7    1s
    H  568   232                       5.2189144    0.00000   100%  16.7    1s
    H  568   221                       5.2187229    0.00000   100%  16.7    1s
    H  568   209                       5.2184235    0.00000   100%  16.7    1s
    H  568   199                       5.2184214    0.00000   100%  16.7    1s
    H  572   191                       5.1294244    0.00000   100%  16.8    1s
    H  572   181                       5.1254804    0.00000   100%  16.8    1s
    H  572   172                       5.1254801    0.00000   100%  16.8    1s
    H  575   165                       5.1235438    0.00000   100%  17.0    1s
    H  689   223                       5.0795197    0.00000   100%  17.1    1s
    H  689   215                       5.0767015    0.00000   100%  17.1    1s
    H  689   208                       5.0760794    0.00000   100%  17.1    1s
    H  689   201                       5.0755213    0.00000   100%  17.1    1s
    H  689   194                       5.0755116    0.00000   100%  17.1    1s
    H  709   198                       5.0273883    0.00000   100%  17.0    1s
    H  709   192                       5.0219252    0.00000   100%  17.0    1s
    H  709   186                       5.0124387    0.00000   100%  17.0    1s
    H  836   223                       5.0123711    0.00000   100%  17.6    2s
    H 1069   346                       5.0123710    0.00000   100%  18.7    2s
    H 1069   346                       5.0123704    0.00000   100%  18.7    2s
    H 1138   410                       5.0123692    0.00000   100%  18.8    2s
    H 1208   446                       5.0123444    0.00000   100%  19.5    2s
    H 1487   622                       5.0080054    0.00000   100%  20.7    3s
    H 1487   622                       5.0014130    0.00000   100%  20.7    3s
    H 1487   622                       4.9982024    0.00000   100%  20.7    3s
    H 1487   622                       4.9975421    0.00000   100%  20.7    3s
    H 1549   658                       4.9975388    0.00000   100%  20.9    3s
    H 1571   664                       4.9975345    0.00000   100%  20.8    3s
    H 1743   765                       4.9865856    0.00000   100%  21.3    3s
    H 1743   765                       4.9803319    0.00000   100%  21.3    3s
    H 1925   850                       4.9803317    0.00000   100%  21.7    3s
    H 1925   850                       4.9803290    0.00000   100%  21.7    3s
    H 2004   895                       4.9803287    0.00000   100%  21.8    3s
    H 2802  1222                       4.9803278    0.00000   100%  22.2    4s
    H 2802  1222                       4.9803273    0.00000   100%  22.2    4s
      2893  1275    2.72799   33  215    4.98033    0.00000   100%  22.3    5s
    H 3143  1405                       4.9803272    0.00000   100%  22.1    5s
    H 4144  1839                       4.9607083    0.00000   100%  22.5    6s
    H 4144  1834                       4.8792413    0.00000   100%  22.5    6s
    H 4146  1836                       4.8787604    0.00000   100%  22.6    6s
    H 4152  1842                       4.8785140    0.00000   100%  22.6    7s
    H 4152  1842                       4.8785028    0.00000   100%  22.6    7s
    H 4152  1842                       4.8784526    0.00000   100%  22.6    7s
    H 4153  1843                       4.8783973    0.00000   100%  22.6    7s
    H 4153  1843                       4.8782490    0.00000   100%  22.6    7s
    H 4155  1845                       4.8782419    0.00000   100%  22.6    7s
    H 4157  1847                       4.8780739    0.00000   100%  22.6    7s
    H 4168  1848                       4.8777643    0.00000   100%  22.6    7s
    H 4168  1848                       4.8777621    0.00000   100%  22.6    7s
    H 4212  1862                       4.8776500    0.00000   100%  22.6    7s
    H 4212  1862                       4.8774683    0.00000   100%  22.6    7s
    H 4212  1862                       4.8773239    0.00000   100%  22.6    7s
    H 4290  1886                       4.8773216    0.00000   100%  22.8    7s
    H 4290  1886                       4.8771565    0.00000   100%  22.8    7s
    H 4290  1886                       4.8768800    0.00000   100%  22.8    7s
    H 4290  1886                       4.8768157    0.00000   100%  22.8    7s
    H 4351  1917                       4.8764978    0.00000   100%  22.9    7s
    H 4351  1917                       4.8763913    0.00000   100%  22.9    7s
    H 4351  1917                       4.8760634    0.00000   100%  22.9    7s
    H 4396  1940                       4.8760108    0.00117   100%  23.0    7s
    H 4426  1950                       4.8759875    0.00117   100%  23.0    7s
    H 4475  1955                       4.8758169    0.01146   100%  23.1    7s
    H 4541  1973                       4.8744887    0.01146   100%  23.0    7s
    H 4541  1973                       4.8744868    0.01146   100%  23.0    7s
    H 4597  2000                       4.8744867    0.01146   100%  23.0    7s
    H 4728  2044                       4.8744853    0.02199   100%  23.0    8s
    H 4814  2070                       4.8744826    0.03283  99.3%  23.0    8s
    H 4894  2096                       4.8744810    0.03283  99.3%  23.1    8s
      6835  2808    3.74913   28  219    4.87448    0.29968  93.9%  23.0   10s
    H11790  4340                       4.8491330    0.91007  81.2%  23.1   14s
     12319  4805    4.22376   40  207    4.84913    0.91007  81.2%  22.4   15s
     17703  6569    3.97802   33  206    4.84913    1.18854  75.5%  22.0   20s
     22855  7700     cutoff   39         4.84913    1.48492  69.4%  22.1   25s
     27910  8996    3.16283   27  226    4.84913    1.68427  65.3%  21.9   30s
     32989 10062    3.23351   39  216    4.84913    1.87802  61.3%  21.8   35s
     37878 10947     cutoff   40         4.84913    2.04161  57.9%  21.9   40s
     42830 11867    3.46355   35  217    4.84913    2.16144  55.4%  21.8   45s
     47581 12455    3.66812   33  218    4.84913    2.28260  52.9%  21.9   50s
     52523 13058    4.29300   51  186    4.84913    2.39223  50.7%  21.9   55s
    H55016 13331                       4.8491330    2.44849  49.5%  21.8   57s
    H55814 13413                       4.8491329    2.46263  49.2%  21.9   59s
    H56665 13463                       4.8491323    2.49809  48.5%  21.9   59s
    H56665 13463                       4.8491309    2.49809  48.5%  21.9   59s
     56679 13459     cutoff   32         4.84913    2.50021  48.4%  21.9   60s
    H59799 13722                       4.8491300    2.56273  47.2%  21.8   63s
     61212 13827     cutoff   39         4.84913    2.59746  46.4%  21.8   65s
    H65136 14077                       4.8467121    2.67826  44.7%  21.8   69s
    H65161 14084                       4.8467121    2.67827  44.7%  21.8   69s
     65421 14149     cutoff   43         4.84671    2.68312  44.6%  21.8   70s
    H67780 14233                       4.8467115    2.74000  43.5%  21.8   73s
     69639 14271    4.73140   39  185    4.84671    2.76983  42.9%  21.8   75s
    H70666 14309                       4.8467114    2.78939  42.4%  21.8   76s
    H71667 14367                       4.8467106    2.80962  42.0%  21.8   77s
     74166 14410    4.15721   24  173    4.84671    2.86096  41.0%  21.8   80s
     78557 14522    3.13274   29  210    4.84671    2.93659  39.4%  21.8   85s
     83006 14739    4.48494   41  207    4.84671    3.01656  37.8%  21.8   90s
     87169 14709     cutoff   38         4.84671    3.09865  36.1%  21.7   95s
     91257 14670    3.27192   33  224    4.84671    3.17169  34.6%  21.7  100s
     95456 14541    3.89507   43  193    4.84671    3.24770  33.0%  21.7  105s
     99753 14618    4.02594   33  227    4.84671    3.31773  31.5%  21.6  110s
     103870 14148    3.68483   34  218    4.84671    3.40636  29.7%  21.6  115s
     108019 13781    4.43909   47  199    4.84671    3.48687  28.1%  21.5  120s
     111979 13304    4.07537   38  211    4.84671    3.56877  26.4%  21.5  125s
     116115 12671    4.16742   36  205    4.84671    3.65695  24.5%  21.4  130s
     120437 12702    4.78574   77  132    4.84671    3.73541  22.9%  21.3  135s
     125100 14001    4.67728   99  186    4.84671    3.78921  21.8%  21.0  140s
     129259 15029     cutoff   28         4.84671    3.83448  20.9%  20.7  145s
     134047 16842    4.04347   65  193    4.84671    3.86446  20.3%  20.4  150s
     138920 18713     cutoff   34         4.84671    3.88840  19.8%  20.0  155s
     143852 21170     cutoff   76         4.84671    3.90925  19.3%  19.6  160s
     148889 23942    4.75630   87  154    4.84671    3.92305  19.1%  19.2  165s
     153857 26071    4.48140   40  212    4.84671    3.93869  18.7%  18.9  170s
     158493 27940    4.81420   78  129    4.84671    3.95124  18.5%  18.6  175s
     163404 30556     cutoff   70         4.84671    3.96054  18.3%  18.3  180s
     168311 32715    4.14423   61  167    4.84671    3.97025  18.1%  18.1  185s
     173182 34857    4.24639   63  185    4.84671    3.98005  17.9%  17.8  190s
     177838 37191    4.70259   79  143    4.84671    3.98509  17.8%  17.6  195s
     182657 39359    4.67908   86  198    4.84671    3.99170  17.6%  17.3  200s
     187626 41840    4.44594   57  175    4.84671    3.99834  17.5%  17.1  205s
     192503 44272 infeasible   67         4.84671    4.00536  17.4%  16.9  210s
     196984 46322     cutoff   72         4.84671    4.01366  17.2%  16.7  215s
     201940 48486    4.73622   93  165    4.84671    4.02000  17.1%  16.5  220s
     206921 50824    4.52538   69  171    4.84671    4.02666  16.9%  16.3  225s
     211553 52641     cutoff   67         4.84671    4.03402  16.8%  16.1  230s
     216470 54735     cutoff   35         4.84671    4.03913  16.7%  16.0  235s
     221436 57153     cutoff   82         4.84671    4.04535  16.5%  15.8  240s
     226389 59590    4.20338   77  187    4.84671    4.05070  16.4%  15.6  245s
     230818 61467    4.79779   74  153    4.84671    4.05506  16.3%  15.5  250s
     235885 63688 infeasible   79         4.84671    4.06004  16.2%  15.3  255s
     240697 65625    4.43010   60  167    4.84671    4.06432  16.1%  15.2  260s
     245559 67739    4.66094   70  160    4.84671    4.06795  16.1%  15.1  265s
     250198 69912     cutoff   81         4.84671    4.07135  16.0%  15.0  270s
     255094 72046    4.83302  143  198    4.84671    4.07533  15.9%  14.8  275s
     260007 74288    4.70719   79  154    4.84671    4.07909  15.8%  14.7  280s
     264494 75877 infeasible   76         4.84671    4.08247  15.8%  14.6  285s
     269315 77893    4.67018   73  151    4.84671    4.08645  15.7%  14.5  290s
     274095 79799 infeasible   74         4.84671    4.08983  15.6%  14.4  295s
    
    Cutting planes:
      Gomory: 8
      Implied bound: 3
      MIR: 12
      Flow cover: 37
      Inf proof: 5
      RLT: 8
    
    Explored 278761 nodes (3986003 simplex iterations) in 300.00 seconds (205.30 work units)
    Thread count was 1 (of 96 available processors)
    
    Solution count 10: 4.84671 4.84671 4.84671 ... 4.87448
    
    Time limit reached
    Best objective 4.846710606218e+00, best bound 4.093136511670e+00, gap 15.5482%
    
    User-callback calls 278864, time in user-callback 0.01 sec

--- Reading solution for model GAMS_MODEL
***
*** Solver did not provide marginals for model GAMS_MODEL
***
--- Executing after solve: elapsed 0:05:00.106
--- model.gms(289) 3 Mb
--- model.gms(474) 5 Mb
--- Putfile results /local/scratch/a/sgusev/repos/k_means/data/gams_gurobi_gdp.binary_multiplication/no_mode/2026-02-19_01-15-32/original/results.dat
--- Putfile statresults /local/scratch/a/sgusev/repos/k_means/data/gams_gurobi_gdp.binary_multiplication/no_mode/2026-02-19_01-15-32/original/resultsstat.dat
*** Status: Normal completion
--- Job model.gms Stop 02/19/26 01:20:33 elapsed 0:05:00.107
Original problem solved. Time taken: 300.57899141311646 seconds
Original objective value: 4.846710606217755
